CPXPARAM_Read_DataCheck                          1
Found incumbent of value 0.000000 after 0.00 sec. (0.02 ticks)
Tried aggregator 1 time.
MIP Presolve modified 1 coefficients.
Reduced MIP has 117 rows, 505 columns, and 2517 nonzeros.
Reduced MIP has 505 binaries, 0 generals, 0 SOSs, and 0 indicators.
Presolve time = 0.00 sec. (1.07 ticks)
Probing time = 0.00 sec. (2.23 ticks)
Tried aggregator 1 time.
Reduced MIP has 117 rows, 505 columns, and 2517 nonzeros.
Reduced MIP has 505 binaries, 0 generals, 0 SOSs, and 0 indicators.
Presolve time = 0.00 sec. (1.27 ticks)
Probing time = 0.00 sec. (2.25 ticks)
Clique table members: 1814.
MIP emphasis: balance optimality and feasibility.
MIP search method: dynamic search.
Parallel mode: deterministic, using up to 4 threads.
Root relaxation solution time = 0.00 sec. (1.05 ticks)

        Nodes                                         Cuts/
   Node  Left     Objective  IInf  Best Integer    Best Bound    ItCnt     Gap

*     0+    0                            0.0000     3030.0000              --- 
      0     0     1369.8800     5        0.0000     1369.8800      161     --- 
*     0+    0                          598.0000     1369.8800           129.08%
      0     0     1344.5382    14      598.0000     Cuts: 137      184  124.84%
      0     0     1031.8646   143      598.0000     Cuts: 134      348   72.55%
      0     0     1009.5620   157      598.0000     Cuts: 134      464   68.82%
      0     0      729.4797   207      598.0000     Cuts: 131      684   21.99%
*     0+    0                          634.0000      729.4797            15.06%
      0     0      710.9291   118      634.0000      Cuts: 72      760   12.13%
      0     0      694.4432   232      634.0000      Cuts: 11      807    9.53%
      0     0      690.8159   121      634.0000      Cuts: 13      831    8.96%
      0     0      688.9403   123      634.0000     Covers: 3      852    8.67%
      0     0      685.6992   233      634.0000     Covers: 3      893    8.15%
*     0+    0                          648.0000      685.6992             5.82%
      0     0      684.6322   108      648.0000       Cuts: 8      917    5.65%
      0     0      683.0198   224      648.0000       Cuts: 8      964    5.40%
      0     0      682.7137   106      648.0000      Cuts: 10      981    5.36%
      0     0      681.8292   102      648.0000       Cuts: 4     1016    5.22%
      0     0      680.6482   102      648.0000       Cuts: 5     1053    5.04%
      0     0      680.3149   106      648.0000       Cuts: 7     1078    4.99%
      0     0      679.5123   231      648.0000       Cuts: 5     1107    4.86%
      0     0      679.1354   107      648.0000      Cuts: 11     1138    4.80%
      0     0      678.9996   102      648.0000     Covers: 4     1170    4.78%
      0     0        cutoff            648.0000      648.0000     1215    0.00%
Elapsed time = 0.09 sec. (96.65 ticks, tree = 0.01 MB, solutions = 4)

Clique cuts applied:  352
Cover cuts applied:  33
Mixed integer rounding cuts applied:  3

Root node processing (before b&c):
  Real time             =    0.09 sec. (96.70 ticks)
Parallel b&c, 4 threads:
  Real time             =    0.00 sec. (0.00 ticks)
  Sync time (average)   =    0.00 sec.
  Wait time (average)   =    0.00 sec.
                          ------------
Total (root+branch&cut) =    0.09 sec. (96.70 ticks)
